%nprocshared=20
%mem=60000MB
#wB97XD/def2tzvp NoSymm     SCRF(PCM,Read)
 IOp(3/107=gammavalue) IOp(3/108=gammavalue)

molec1

 -1   2
cartesian coordinate of anion state geometry

Eps=3.0

