%nprocshared=20
%mem=60000MB
#LC-wPBE/may-cc-pvtz NoSymm scf=xqc
 IOp(3/107=gammavalue) IOp(3/108=gammavalue)

molec1

 -1   2
cartesian coordinate of anion state geometry

