%nprocshared=20
%mem=60000MB
#p opt wb97xd/def2svp nosymm  SCRF(PCM,Read)

Title Card Required

-1  2
cartesian coordinates

Eps=3.0

