%nprocshared=20
%mem=60000MB
#p opt wb97xd/def2tzvp nosymm

Title Card Required

-1  2
cartesian coordinates

